SAT
-20 100 -84 29 39 -68 81 89 -41 83 36 90 56 -93 51 72 21 55 -37 -47 -19 -11 -54 7 15 44 -16 -10 45 -97 -38 24 66 4 -91 18 67 14 -53 -63 65 88 85 23 8 5 -13 79 -48 32 99 46 -9 -74 -58 -57 -71 52 -98 95 78 96 26 -31 33 -75 30 76 -42 94 49 -43 -28 -82 22 77 -69 -17 -64 60 -62 25 12 92 -34 61 2 -80 -1 -6 59 -3 70 73 -27 -87 -40 35 50 -86 0
